************************************************************************
file with basedata            : cm223_.bas
initial value random generator: 2029224621
************************************************************************
projects                      :  1
jobs (incl. supersource/sink ):  18
horizon                       :  108
RESOURCES
  - renewable                 :  2   R
  - nonrenewable              :  2   N
  - doubly constrained        :  0   D
************************************************************************
PROJECT INFORMATION:
pronr.  #jobs rel.date duedate tardcost  MPM-Time
    1     16      0       28        8       28
************************************************************************
PRECEDENCE RELATIONS:
jobnr.    #modes  #successors   successors
   1        1          3           2   3   4
   2        2          1           5
   3        2          3           7  11  12
   4        2          2           7  16
   5        2          3           6   8   9
   6        2          3           7  10  11
   7        2          1          14
   8        2          3          10  14  15
   9        2          3          10  11  12
  10        2          2          16  17
  11        2          1          13
  12        2          2          15  16
  13        2          2          14  15
  14        2          1          17
  15        2          1          18
  16        2          1          18
  17        2          1          18
  18        1          0        
************************************************************************
REQUESTS/DURATIONS:
jobnr. mode duration  R 1  R 2  N 1  N 2
------------------------------------------------------------------------
  1      1     0       0    0    0    0
  2      1     7       2    3    0    9
         2     8       1    3    7    0
  3      1     8       7    1    6    0
         2     9       3    1    3    0
  4      1     2       8    7    3    0
         2     9       5    2    0    6
  5      1     6       2   10    6    0
         2    10       1   10    4    0
  6      1     1       3    3    6    0
         2     3       3    2    0    4
  7      1     4       5    9    1    0
         2     9       5    8    0    2
  8      1     6       6    9    8    0
         2    10       2    5    5    0
  9      1     3       1    6    0    3
         2     3       1   10    0    2
 10      1     3       9    8    0    3
         2     6       5    6    2    0
 11      1     2       7    9    0    8
         2     3       6    8    0    7
 12      1     1       7    8    9    0
         2     7       7    5    9    0
 13      1     1       8    7    8    0
         2     2       6    3    0    7
 14      1     8       9    4    0    9
         2    10       5    1    0    8
 15      1     5      10    5    0    4
         2     7       9    3    0    3
 16      1     2       8    5    0    5
         2     3       8    4    1    0
 17      1     1      10    5    6    0
         2     9       6    5    0    3
 18      1     0       0    0    0    0
************************************************************************
RESOURCEAVAILABILITIES:
  R 1  R 2  N 1  N 2
   23   29   53   52
************************************************************************
